unsat
(forall ((A (_ BitVec 20))
         (B (_ BitVec 20))
         (C (_ BitVec 20))
         (D (_ BitVec 20))
         (E (_ BitVec 20))
         (F (_ BitVec 20))
         (G (_ BitVec 20))
         (H (_ BitVec 20))
         (I (_ BitVec 20))
         (J (_ BitVec 20))
         (K (_ BitVec 20))
         (L (_ BitVec 20))
         (M (_ BitVec 20))
         (N (_ BitVec 22))
         (O (_ BitVec 14))
         (P (_ BitVec 14))
         (Q (_ BitVec 20))
         (R (_ BitVec 20))
         (S (_ BitVec 20))
         (T (_ BitVec 20))
         (U (_ BitVec 20))
         (V (_ BitVec 20))
         (W (_ BitVec 20))
         (X (_ BitVec 20))
         (Y (_ BitVec 38))
         (Z (_ BitVec 38))
         (A1 (_ BitVec 38))
         (B1 (_ BitVec 38))
         (C1 (_ BitVec 20))
         (D1 (_ BitVec 20))
         (E1 (_ BitVec 20))
         (F1 (_ BitVec 20))
         (G1 (_ BitVec 17))
         (H1 (_ BitVec 17))
         (I1 (_ BitVec 17))
         (J1 (_ BitVec 18))
         (K1 (_ BitVec 20))
         (L1 (_ BitVec 22))
         (M1 (_ BitVec 20))
         (N1 (_ BitVec 20))
         (O1 (_ BitVec 1))
         (P1 (_ BitVec 1))
         (Q1 (_ BitVec 22))
         (R1 (_ BitVec 14))
         (S1 (_ BitVec 22))
         (T1 (_ BitVec 14))
         (U1 (_ BitVec 22))
         (V1 (_ BitVec 20))
         (W1 (_ BitVec 1))
         (X1 (_ BitVec 20))
         (Y1 (_ BitVec 17))
         (Z1 (_ BitVec 20))
         (A2 (_ BitVec 20))
         (B2 (_ BitVec 20))
         (C2 (_ BitVec 1))
         (D2 (_ BitVec 20))
         (E2 (_ BitVec 20))
         (F2 (_ BitVec 38))
         (G2 (_ BitVec 20))
         (H2 (_ BitVec 20))
         (I2 (_ BitVec 1))
         (J2 (_ BitVec 20))
         (K2 (_ BitVec 20))
         (L2 (_ BitVec 20))
         (M2 (_ BitVec 18))
         (N2 (_ BitVec 22))
         (O2 (_ BitVec 20))
         (P2 (_ BitVec 20))
         (Q2 (_ BitVec 20))
         (R2 (_ BitVec 20))
         (S2 (_ BitVec 20))
         (T2 (_ BitVec 20))
         (U2 (_ BitVec 18))
         (V2 (_ BitVec 17))
         (W2 (_ BitVec 20))
         (X2 (_ BitVec 22))
         (Y2 (_ BitVec 1))
         (Z2 (_ BitVec 14))
         (A3 (_ BitVec 38))
         (B3 (_ BitVec 14))
         (C3 (_ BitVec 20))
         (D3 (_ BitVec 16))
         (E3 (_ BitVec 17))
         (F3 (_ BitVec 38))
         (G3 (_ BitVec 30))
         (H3 (_ BitVec 30))
         (I3 (_ BitVec 20))
         (J3 (_ BitVec 20))
         (K3 (_ BitVec 1))
         (L3 (_ BitVec 1))
         (M3 (_ BitVec 1))
         (N3 (_ BitVec 20))
         (O3 (_ BitVec 20))
         (P3 (_ BitVec 20))
         (Q3 (_ BitVec 20))
         (R3 (_ BitVec 16))
         (S3 (_ BitVec 1))
         (T3 (_ BitVec 17))
         (U3 (_ BitVec 38))
         (V3 (_ BitVec 20))
         (W3 (_ BitVec 30))
         (X3 (_ BitVec 1))
         (Y3 (_ BitVec 38))
         (Z3 (_ BitVec 30)))
  (! (let ((a!1 (= ((_ extract 11 4)
                     (bvadd ((_ extract 37 8) A1) (concat #x00 N)))
                   ((_ extract 19 12) D1)))
           (a!2 ((_ extract 17 10)
                  (bvadd (concat #b000 ((_ extract 21 2) X2)) (concat #b0 L1))))
           (a!3 (= ((_ extract 15 8)
                     (bvadd ((_ extract 37 4) B1) (concat #x000 N2)))
                   ((_ extract 19 12) F1)))
           (a!4 (= ((_ extract 19 12) J2)
                   ((_ extract 13 6)
                     (bvadd ((_ extract 37 6) F2) (concat #b0000000000 U1)))))
           (a!5 (= ((_ extract 19 12) V1)
                   ((_ extract 9 2)
                     (bvadd ((_ extract 37 10) Z) (concat #b000000 S1)))))
           (a!6 ((_ extract 9 2)
                  (bvadd (concat #b000 ((_ extract 21 2) X2)) (concat #b0 L1))))
           (a!8 (concat ((_ extract 7 2)
                          (bvadd ((_ extract 37 4) B1) (concat #x000 N2)))
                        (bvadd ((_ extract 5 4) B1) ((_ extract 1 0) N2))
                        ((_ extract 3 0) B1)))
           (a!9 (concat ((_ extract 5 2)
                          (bvadd ((_ extract 37 6) F2) (concat #b0000000000 U1)))
                        (bvadd ((_ extract 7 6) F2) ((_ extract 1 0) U1))
                        ((_ extract 5 0) F2)))
           (a!10 (concat ((_ extract 3 2)
                           (bvadd ((_ extract 37 8) A1) (concat #x00 N)))
                         (bvadd ((_ extract 1 0) N) ((_ extract 9 8) A1))
                         ((_ extract 7 0) A1)))
           (a!11 (= ((_ extract 11 0) V1)
                    (concat (bvadd ((_ extract 11 10) Z) ((_ extract 1 0) S1))
                            ((_ extract 9 0) Z))))
           (a!12 (= ((_ extract 25 8)
                      (bvadd ((_ extract 37 12) Y) (concat #x0 Q1)))
                    #b000000000000000000))
           (a!13 (= ((_ extract 29 12)
                      (bvadd ((_ extract 37 8) A1) (concat #x00 N)))
                    #b000000000000000000))
           (a!14 (= ((_ extract 27 10)
                      (bvadd ((_ extract 37 10) Z) (concat #b000000 S1)))
                    #b000000000000000000))
           (a!15 (= ((_ extract 31 14)
                      (bvadd ((_ extract 37 6) F2) (concat #b0000000000 U1)))
                    #b000000000000000000))
           (a!16 (= ((_ extract 33 16)
                      (bvadd ((_ extract 37 4) B1) (concat #x000 N2)))
                    #b000000000000000000))
           (a!17 ((_ extract 22 18)
                   (bvadd (concat #b000 ((_ extract 21 2) X2)) (concat #b0 L1)))))
     (let ((a!7 (= (concat a!6
                           (bvadd ((_ extract 1 0) L1) ((_ extract 3 2) X2))
                           ((_ extract 1 0) X2))
                   ((_ extract 11 0) W2))))
     (let ((a!18 (and (or (not (= P1 #b0)) (= S3 #b0))
                      (not ((_ bit2bool 3) T1))
                      (not ((_ bit2bool 2) T1))
                      (not ((_ bit2bool 1) T1))
                      (not ((_ bit2bool 0) T1))
                      (not (= ((_ extract 17 17) J1) #b1))
                      (not ((_ bit2bool 1) R1))
                      (not ((_ bit2bool 0) R1))
                      (or ((_ bit2bool 0) K)
                          (not ((_ bit2bool 0) Q))
                          (= ((_ extract 0 0) D2) #b1))
                      (not ((_ bit2bool 3) O))
                      (not ((_ bit2bool 5) P))
                      (not ((_ bit2bool 1) B3))
                      (not (= ((_ extract 17 17) U2) #b1))
                      (or (not ((_ bit2bool 0) U2))
                          (not ((_ bit2bool 0) J1))
                          (not ((_ bit2bool 0) M2)))
                      (not ((_ bit2bool 4) O))
                      (not ((_ bit2bool 6) P))
                      (not ((_ bit2bool 2) B3))
                      (not (= ((_ extract 17 17) M2) #b1))
                      (or ((_ bit2bool 0) Q)
                          ((_ bit2bool 0) D2)
                          (not ((_ bit2bool 0) K)))
                      (not ((_ bit2bool 7) P))
                      (not ((_ bit2bool 5) O))
                      (not ((_ bit2bool 3) B3))
                      (= (bvadd ((_ extract 7 0) Q1) ((_ extract 19 12) Y))
                         ((_ extract 19 12) C1))
                      a!1
                      (= a!2 ((_ extract 19 12) W2))
                      a!3
                      (not ((_ bit2bool 0) P))
                      (not ((_ bit2bool 1) P))
                      a!4
                      (not ((_ bit2bool 3) P))
                      (not ((_ bit2bool 1) O))
                      (not ((_ bit2bool 0) O))
                      (not ((_ bit2bool 2) P))
                      (not ((_ bit2bool 0) B3))
                      (not ((_ bit2bool 4) P))
                      (not ((_ bit2bool 2) O))
                      a!5
                      (or ((_ bit2bool 2) I1)
                          ((_ bit2bool 1) I1)
                          (not ((_ bit2bool 0) I1))
                          a!7)
                      (or ((_ bit2bool 1) V2)
                          ((_ bit2bool 2) V2)
                          (not ((_ bit2bool 0) V2))
                          (= ((_ extract 11 0) F1) a!8))
                      (or (not (= T3 #b00000000000000001))
                          (= ((_ extract 11 0) J2) a!9))
                      (or (not (= Y1 #b00000000000000001))
                          (= a!10 ((_ extract 11 0) D1)))
                      (or (not (= H1 #b00000000000000001)) a!11)
                      (or (not (= E3 #b00000000000000001))
                          (= ((_ extract 11 0) Y) ((_ extract 11 0) C1)))
                      (not ((_ bit2bool 8) P))
                      (not ((_ bit2bool 6) O))
                      (not ((_ bit2bool 4) B3))
                      (not ((_ bit2bool 7) O))
                      (not ((_ bit2bool 9) P))
                      (not ((_ bit2bool 5) B3))
                      a!12
                      a!13
                      a!14
                      a!15
                      a!16
                      (= a!17 #b00000)
                      (or (not (= G1 #b00000000000000001))
                          (= U3 (concat #b000000000000000000 G2))))))
       (= (INV!slice!1 A
                       B
                       C
                       D
                       E
                       F
                       G
                       H
                       I
                       J
                       K
                       L
                       M
                       N
                       O
                       P
                       Q
                       R
                       S
                       T
                       U
                       V
                       W
                       X
                       Y
                       Z
                       A1
                       B1
                       C1
                       D1
                       E1
                       F1
                       G1
                       H1
                       I1
                       J1
                       K1
                       L1
                       M1
                       N1
                       O1
                       P1
                       Q1
                       R1
                       S1
                       T1
                       U1
                       V1
                       W1
                       X1
                       Y1
                       Z1
                       A2
                       B2
                       C2
                       D2
                       E2
                       F2
                       G2
                       H2
                       I2
                       J2
                       K2
                       L2
                       M2
                       N2
                       O2
                       P2
                       Q2
                       R2
                       S2
                       T2
                       U2
                       V2
                       W2
                       X2
                       Y2
                       Z2
                       A3
                       B3
                       C3
                       D3
                       E3
                       F3
                       G3
                       H3
                       I3
                       J3
                       K3
                       L3
                       M3
                       N3
                       O3
                       P3
                       Q3
                       R3
                       S3
                       T3
                       U3
                       V3
                       W3
                       X3
                       Y3
                       Z3)
          a!18))))
     :weight 0))
